Maximize
  0.0446682296317867 Z_54_1_0 + 0.0150405886506844 Z_54_1_1
   + 0.00868684312457318 Z_54_1_2 + 0.385593816600709 Z_54_1_3
   + 0.0467743510468884 Z_51_1_0 + 0.0496004870582661 Z_51_1_1
   + 0.00723962016999302 Z_51_1_2 + 0.4491625734746715 Z_51_1_3
   + 0.3729932363863889 Z_51_2_0 + 0.00319987257780963 Z_51_2_1
   + 0.00565761692944428 Z_51_2_2 + 0.0237549789619937 Z_51_2_3
   + 0.00886898891387106 Z_51_3_0 + 0.00884644983381316 Z_51_3_1
   + 0.4615411736851224 Z_51_3_2 + 0.00526165701149163 Z_51_3_3
   + 0.0103295921310848 Z_108_1_0 + 0.2645524630094929 Z_108_1_1
   + 0.0259285976593202 Z_108_1_2 + 0.0473587581849648 Z_108_1_3
   + 0.3496804555044091 Z_113_1_0 + 0.014064523140432 Z_113_1_1
   + 0.00865383144436382 Z_113_1_2 + 0.0314626766691159 Z_113_1_3
   + 7.0068143528390081e-04 Z_113_2_0 + 0.00135907027550342 Z_113_2_1
   + 0.475826695625522 Z_113_2_2 + 0.00580158357785944 Z_113_2_3
   + 7.0068143528390081e-04 Z_113_3_0 + 0.00135907027550342 Z_113_3_1
   + 0.475826695625522 Z_113_3_2 + 0.00580158357785944 Z_113_3_3
   + 0.3496804555044091 Z_113_4_0 + 0.014064523140432 Z_113_4_1
   + 0.00865383144436382 Z_113_4_2 + 0.0314626766691159 Z_113_4_3
   + 0.0158104282766657 Z_28_1_0 + 0.000741049 Z_28_1_1
   + 0.0116116294623071 Z_28_1_2 + 0.4634706148605527 Z_28_1_3
   + 0.3436580008735342 Z_89_1_0 + 0.0175505170976201 Z_89_1_1
   + 0.00345367776657568 Z_89_1_2 + 0.0509097627065759 Z_89_1_3
   + 0.00248551691972715 Z_89_2_0 + 0.00169053941912078 Z_89_2_1
   + 0.4254155071385947 Z_89_2_2 + 0.00404322314039376 Z_89_2_3
   + 0.00368574156225376 Z_16_1_0 + 0.00362325072486902 Z_16_1_1
   + 0.1213543007833424 Z_16_1_2 + 0.4609646255304293 Z_16_1_3
   + 0.0217900486546693 Z_117_1_0 + 0.3758220812528423 Z_117_1_1
   + 0.0369543317172242 Z_117_1_2 + 0.0196147088875722 Z_117_1_3
   + 0.044497893623072 Z_32_1_0 + 0.0184791783982582 Z_32_1_1
   + 0.00332649901542026 Z_32_1_2 + 0.4364825588433482 Z_32_1_3
   + 0.00209139963567195 Z_32_2_0 + 0.00182107657820518 Z_32_2_1
   + 0.463530726003565 Z_32_2_2 + 0.00421079636699828 Z_32_2_3 + [
   0.2703251451285424 Z_54_1_0 * Z_51_2_0
   + 0.1401384083044983 Z_54_1_0 * Z_51_3_0
   + 0.6087016913850126 Z_54_1_0 * Z_108_1_0 + 2 Z_54_1_0 * Z_113_1_0
   + 0.4899693129788314 Z_54_1_0 * Z_113_3_0
   + 0.6369557110911932 Z_54_1_0 * Z_113_4_0
   + 0.3528858273495501 Z_54_1_0 * Z_28_1_0
   + 0.8569553850900768 Z_54_1_0 * Z_89_1_0
   + 0.4210526315789473 Z_54_1_0 * Z_89_2_0
   + 0.8856410595334063 Z_54_1_0 * Z_16_1_0
   + 0.4899693129788314 Z_54_1_0 * Z_117_1_0
   + 0.4210526315789473 Z_54_1_0 * Z_32_2_0
   + 0.2703251451285424 Z_54_1_1 * Z_51_2_1
   + 0.1401384083044983 Z_54_1_1 * Z_51_3_1
   + 0.6087016913850126 Z_54_1_1 * Z_108_1_1 + 2 Z_54_1_1 * Z_113_1_1
   + 0.4899693129788314 Z_54_1_1 * Z_113_3_1
   + 0.6369557110911932 Z_54_1_1 * Z_113_4_1
   + 0.3528858273495501 Z_54_1_1 * Z_28_1_1
   + 0.8569553850900768 Z_54_1_1 * Z_89_1_1
   + 0.4210526315789473 Z_54_1_1 * Z_89_2_1
   + 0.8856410595334063 Z_54_1_1 * Z_16_1_1
   + 0.4899693129788314 Z_54_1_1 * Z_117_1_1
   + 0.4210526315789473 Z_54_1_1 * Z_32_2_1
   + 0.2703251451285424 Z_54_1_2 * Z_51_2_2
   + 0.1401384083044983 Z_54_1_2 * Z_51_3_2
   + 0.6087016913850126 Z_54_1_2 * Z_108_1_2 + 2 Z_54_1_2 * Z_113_1_2
   + 0.4899693129788314 Z_54_1_2 * Z_113_3_2
   + 0.6369557110911932 Z_54_1_2 * Z_113_4_2
   + 0.3528858273495501 Z_54_1_2 * Z_28_1_2
   + 0.8569553850900768 Z_54_1_2 * Z_89_1_2
   + 0.4210526315789473 Z_54_1_2 * Z_89_2_2
   + 0.8856410595334063 Z_54_1_2 * Z_16_1_2
   + 0.4899693129788314 Z_54_1_2 * Z_117_1_2
   + 0.4210526315789473 Z_54_1_2 * Z_32_2_2
   + 0.2703251451285424 Z_54_1_3 * Z_51_2_3
   + 0.1401384083044983 Z_54_1_3 * Z_51_3_3
   + 0.6087016913850126 Z_54_1_3 * Z_108_1_3 + 2 Z_54_1_3 * Z_113_1_3
   + 0.4899693129788314 Z_54_1_3 * Z_113_3_3
   + 0.6369557110911932 Z_54_1_3 * Z_113_4_3
   + 0.3528858273495501 Z_54_1_3 * Z_28_1_3
   + 0.8569553850900768 Z_54_1_3 * Z_89_1_3
   + 0.4210526315789473 Z_54_1_3 * Z_89_2_3
   + 0.8856410595334063 Z_54_1_3 * Z_16_1_3
   + 0.4899693129788314 Z_54_1_3 * Z_117_1_3
   + 0.4210526315789473 Z_54_1_3 * Z_32_2_3 + 2 Z_51_1_0 * Z_108_1_0
   + 0.1068909700543415 Z_51_1_0 * Z_117_1_0 + 2 Z_51_1_1 * Z_108_1_1
   + 0.1068909700543415 Z_51_1_1 * Z_117_1_1 + 2 Z_51_1_2 * Z_108_1_2
   + 0.1068909700543415 Z_51_1_2 * Z_117_1_2 + 2 Z_51_1_3 * Z_108_1_3
   + 0.1068909700543415 Z_51_1_3 * Z_117_1_3
   + 0.2703251451285424 Z_51_2_0 * Z_108_1_0
   + 0.2703251451285424 Z_51_2_0 * Z_113_1_0 + 2 Z_51_2_0 * Z_113_3_0
   + 2 Z_51_2_0 * Z_113_4_0 + 0.2703251451285424 Z_51_2_0 * Z_28_1_0
   + 2 Z_51_2_0 * Z_89_1_0 + 0.2703251451285424 Z_51_2_0 * Z_16_1_0
   + 0.2703251451285424 Z_51_2_0 * Z_117_1_0
   + 0.2703251451285424 Z_51_2_1 * Z_108_1_1
   + 0.2703251451285424 Z_51_2_1 * Z_113_1_1 + 2 Z_51_2_1 * Z_113_3_1
   + 2 Z_51_2_1 * Z_113_4_1 + 0.2703251451285424 Z_51_2_1 * Z_28_1_1
   + 2 Z_51_2_1 * Z_89_1_1 + 0.2703251451285424 Z_51_2_1 * Z_16_1_1
   + 0.2703251451285424 Z_51_2_1 * Z_117_1_1
   + 0.2703251451285424 Z_51_2_2 * Z_108_1_2
   + 0.2703251451285424 Z_51_2_2 * Z_113_1_2 + 2 Z_51_2_2 * Z_113_3_2
   + 2 Z_51_2_2 * Z_113_4_2 + 0.2703251451285424 Z_51_2_2 * Z_28_1_2
   + 2 Z_51_2_2 * Z_89_1_2 + 0.2703251451285424 Z_51_2_2 * Z_16_1_2
   + 0.2703251451285424 Z_51_2_2 * Z_117_1_2
   + 0.2703251451285424 Z_51_2_3 * Z_108_1_3
   + 0.2703251451285424 Z_51_2_3 * Z_113_1_3 + 2 Z_51_2_3 * Z_113_3_3
   + 2 Z_51_2_3 * Z_113_4_3 + 0.2703251451285424 Z_51_2_3 * Z_28_1_3
   + 2 Z_51_2_3 * Z_89_1_3 + 0.2703251451285424 Z_51_2_3 * Z_16_1_3
   + 0.2703251451285424 Z_51_2_3 * Z_117_1_3
   + 0.00413223140495868 Z_51_3_0 * Z_108_1_0
   + 0.00413223140495868 Z_51_3_0 * Z_113_1_0
   + 0.00413223140495868 Z_51_3_0 * Z_113_3_0
   + 0.00413223140495868 Z_51_3_0 * Z_113_4_0
   + 0.00413223140495868 Z_51_3_0 * Z_28_1_0
   + 0.00413223140495868 Z_51_3_0 * Z_89_1_0
   + 0.1169303015323776 Z_51_3_0 * Z_89_2_0
   + 0.00413223140495868 Z_51_3_0 * Z_16_1_0
   + 0.00413223140495868 Z_51_3_0 * Z_117_1_0
   + 0.1169303015323776 Z_51_3_0 * Z_32_2_0
   + 0.00413223140495868 Z_51_3_1 * Z_108_1_1
   + 0.00413223140495868 Z_51_3_1 * Z_113_1_1
   + 0.00413223140495868 Z_51_3_1 * Z_113_3_1
   + 0.00413223140495868 Z_51_3_1 * Z_113_4_1
   + 0.00413223140495868 Z_51_3_1 * Z_28_1_1
   + 0.00413223140495868 Z_51_3_1 * Z_89_1_1
   + 0.1169303015323776 Z_51_3_1 * Z_89_2_1
   + 0.00413223140495868 Z_51_3_1 * Z_16_1_1
   + 0.00413223140495868 Z_51_3_1 * Z_117_1_1
   + 0.1169303015323776 Z_51_3_1 * Z_32_2_1
   + 0.00413223140495868 Z_51_3_2 * Z_108_1_2
   + 0.00413223140495868 Z_51_3_2 * Z_113_1_2
   + 0.00413223140495868 Z_51_3_2 * Z_113_3_2
   + 0.00413223140495868 Z_51_3_2 * Z_113_4_2
   + 0.00413223140495868 Z_51_3_2 * Z_28_1_2
   + 0.00413223140495868 Z_51_3_2 * Z_89_1_2
   + 0.1169303015323776 Z_51_3_2 * Z_89_2_2
   + 0.00413223140495868 Z_51_3_2 * Z_16_1_2
   + 0.00413223140495868 Z_51_3_2 * Z_117_1_2
   + 0.1169303015323776 Z_51_3_2 * Z_32_2_2
   + 0.00413223140495868 Z_51_3_3 * Z_108_1_3
   + 0.00413223140495868 Z_51_3_3 * Z_113_1_3
   + 0.00413223140495868 Z_51_3_3 * Z_113_3_3
   + 0.00413223140495868 Z_51_3_3 * Z_113_4_3
   + 0.00413223140495868 Z_51_3_3 * Z_28_1_3
   + 0.00413223140495868 Z_51_3_3 * Z_89_1_3
   + 0.1169303015323776 Z_51_3_3 * Z_89_2_3
   + 0.00413223140495868 Z_51_3_3 * Z_16_1_3
   + 0.00413223140495868 Z_51_3_3 * Z_117_1_3
   + 0.1169303015323776 Z_51_3_3 * Z_32_2_3 + 2 Z_108_1_0 * Z_113_1_0
   + 2 Z_108_1_0 * Z_113_2_0 + 1.092952472052062 Z_108_1_0 * Z_113_3_0
   + 0.6369557110911932 Z_108_1_0 * Z_113_4_0
   + 0.3564056562388558 Z_108_1_0 * Z_28_1_0
   + 0.8569553850900768 Z_108_1_0 * Z_89_1_0
   + 0.4583333333333334 Z_108_1_0 * Z_89_2_0
   + 0.8856410595334063 Z_108_1_0 * Z_16_1_0
   + 1.009303856848732 Z_108_1_0 * Z_117_1_0
   + 0.4583333333333334 Z_108_1_0 * Z_32_2_0 + 2 Z_108_1_1 * Z_113_1_1
   + 2 Z_108_1_1 * Z_113_2_1 + 1.092952472052062 Z_108_1_1 * Z_113_3_1
   + 0.6369557110911932 Z_108_1_1 * Z_113_4_1
   + 0.3564056562388558 Z_108_1_1 * Z_28_1_1
   + 0.8569553850900768 Z_108_1_1 * Z_89_1_1
   + 0.4583333333333334 Z_108_1_1 * Z_89_2_1
   + 0.8856410595334063 Z_108_1_1 * Z_16_1_1
   + 1.009303856848732 Z_108_1_1 * Z_117_1_1
   + 0.4583333333333334 Z_108_1_1 * Z_32_2_1 + 2 Z_108_1_2 * Z_113_1_2
   + 2 Z_108_1_2 * Z_113_2_2 + 1.092952472052062 Z_108_1_2 * Z_113_3_2
   + 0.6369557110911932 Z_108_1_2 * Z_113_4_2
   + 0.3564056562388558 Z_108_1_2 * Z_28_1_2
   + 0.8569553850900768 Z_108_1_2 * Z_89_1_2
   + 0.4583333333333334 Z_108_1_2 * Z_89_2_2
   + 0.8856410595334063 Z_108_1_2 * Z_16_1_2
   + 1.009303856848732 Z_108_1_2 * Z_117_1_2
   + 0.4583333333333334 Z_108_1_2 * Z_32_2_2 + 2 Z_108_1_3 * Z_113_1_3
   + 2 Z_108_1_3 * Z_113_2_3 + 1.092952472052062 Z_108_1_3 * Z_113_3_3
   + 0.6369557110911932 Z_108_1_3 * Z_113_4_3
   + 0.3564056562388558 Z_108_1_3 * Z_28_1_3
   + 0.8569553850900768 Z_108_1_3 * Z_89_1_3
   + 0.4583333333333334 Z_108_1_3 * Z_89_2_3
   + 0.8856410595334063 Z_108_1_3 * Z_16_1_3
   + 1.009303856848732 Z_108_1_3 * Z_117_1_3
   + 0.4583333333333334 Z_108_1_3 * Z_32_2_3 + 2 Z_113_1_0 * Z_28_1_0
   + 2 Z_113_1_0 * Z_89_1_0 + 0.0826446280991736 Z_113_1_0 * Z_89_2_0
   + 2 Z_113_1_0 * Z_16_1_0 + 2 Z_113_1_0 * Z_117_1_0
   + 0.0826446280991736 Z_113_1_0 * Z_32_2_0 + 2 Z_113_1_1 * Z_28_1_1
   + 2 Z_113_1_1 * Z_89_1_1 + 0.0826446280991736 Z_113_1_1 * Z_89_2_1
   + 2 Z_113_1_1 * Z_16_1_1 + 2 Z_113_1_1 * Z_117_1_1
   + 0.0826446280991736 Z_113_1_1 * Z_32_2_1 + 2 Z_113_1_2 * Z_28_1_2
   + 2 Z_113_1_2 * Z_89_1_2 + 0.0826446280991736 Z_113_1_2 * Z_89_2_2
   + 2 Z_113_1_2 * Z_16_1_2 + 2 Z_113_1_2 * Z_117_1_2
   + 0.0826446280991736 Z_113_1_2 * Z_32_2_2 + 2 Z_113_1_3 * Z_28_1_3
   + 2 Z_113_1_3 * Z_89_1_3 + 0.0826446280991736 Z_113_1_3 * Z_89_2_3
   + 2 Z_113_1_3 * Z_16_1_3 + 2 Z_113_1_3 * Z_117_1_3
   + 0.0826446280991736 Z_113_1_3 * Z_32_2_3
   + 0.2491307235505547 Z_113_2_0 * Z_89_2_0
   + 0.2491307235505547 Z_113_2_0 * Z_32_2_0
   + 0.2491307235505547 Z_113_2_1 * Z_89_2_1
   + 0.2491307235505547 Z_113_2_1 * Z_32_2_1
   + 0.2491307235505547 Z_113_2_2 * Z_89_2_2
   + 0.2491307235505547 Z_113_2_2 * Z_32_2_2
   + 0.2491307235505547 Z_113_2_3 * Z_89_2_3
   + 0.2491307235505547 Z_113_2_3 * Z_32_2_3
   + 0.3528858273495501 Z_113_3_0 * Z_28_1_0 + 2 Z_113_3_0 * Z_89_1_0
   + 0.2491307235505547 Z_113_3_0 * Z_89_2_0
   + 0.8856410595334063 Z_113_3_0 * Z_16_1_0
   + 0.5784718990546883 Z_113_3_0 * Z_117_1_0
   + 0.2491307235505547 Z_113_3_0 * Z_32_2_0
   + 0.3528858273495501 Z_113_3_1 * Z_28_1_1 + 2 Z_113_3_1 * Z_89_1_1
   + 0.2491307235505547 Z_113_3_1 * Z_89_2_1
   + 0.8856410595334063 Z_113_3_1 * Z_16_1_1
   + 0.5784718990546883 Z_113_3_1 * Z_117_1_1
   + 0.2491307235505547 Z_113_3_1 * Z_32_2_1
   + 0.3528858273495501 Z_113_3_2 * Z_28_1_2 + 2 Z_113_3_2 * Z_89_1_2
   + 0.2491307235505547 Z_113_3_2 * Z_89_2_2
   + 0.8856410595334063 Z_113_3_2 * Z_16_1_2
   + 0.5784718990546883 Z_113_3_2 * Z_117_1_2
   + 0.2491307235505547 Z_113_3_2 * Z_32_2_2
   + 0.3528858273495501 Z_113_3_3 * Z_28_1_3 + 2 Z_113_3_3 * Z_89_1_3
   + 0.2491307235505547 Z_113_3_3 * Z_89_2_3
   + 0.8856410595334063 Z_113_3_3 * Z_16_1_3
   + 0.5784718990546883 Z_113_3_3 * Z_117_1_3
   + 0.2491307235505547 Z_113_3_3 * Z_32_2_3
   + 0.6369557110911932 Z_113_4_0 * Z_28_1_0 + 2 Z_113_4_0 * Z_89_1_0
   + 0.0826446280991736 Z_113_4_0 * Z_89_2_0
   + 0.8856410595334063 Z_113_4_0 * Z_16_1_0
   + 1.150400583080087 Z_113_4_0 * Z_117_1_0
   + 0.0826446280991736 Z_113_4_0 * Z_32_2_0
   + 0.6369557110911932 Z_113_4_1 * Z_28_1_1 + 2 Z_113_4_1 * Z_89_1_1
   + 0.0826446280991736 Z_113_4_1 * Z_89_2_1
   + 0.8856410595334063 Z_113_4_1 * Z_16_1_1
   + 1.150400583080087 Z_113_4_1 * Z_117_1_1
   + 0.0826446280991736 Z_113_4_1 * Z_32_2_1
   + 0.6369557110911932 Z_113_4_2 * Z_28_1_2 + 2 Z_113_4_2 * Z_89_1_2
   + 0.0826446280991736 Z_113_4_2 * Z_89_2_2
   + 0.8856410595334063 Z_113_4_2 * Z_16_1_2
   + 1.150400583080087 Z_113_4_2 * Z_117_1_2
   + 0.0826446280991736 Z_113_4_2 * Z_32_2_2
   + 0.6369557110911932 Z_113_4_3 * Z_28_1_3 + 2 Z_113_4_3 * Z_89_1_3
   + 0.0826446280991736 Z_113_4_3 * Z_89_2_3
   + 0.8856410595334063 Z_113_4_3 * Z_16_1_3
   + 1.150400583080087 Z_113_4_3 * Z_117_1_3
   + 0.0826446280991736 Z_113_4_3 * Z_32_2_3
   + 0.8569553850900768 Z_28_1_0 * Z_89_1_0
   + 0.0826446280991736 Z_28_1_0 * Z_89_2_0 + 2 Z_28_1_0 * Z_16_1_0
   + 0.1765464227888639 Z_28_1_0 * Z_117_1_0
   + 0.0826446280991736 Z_28_1_0 * Z_32_2_0
   + 0.8569553850900768 Z_28_1_1 * Z_89_1_1
   + 0.0826446280991736 Z_28_1_1 * Z_89_2_1 + 2 Z_28_1_1 * Z_16_1_1
   + 0.1765464227888639 Z_28_1_1 * Z_117_1_1
   + 0.0826446280991736 Z_28_1_1 * Z_32_2_1
   + 0.8569553850900768 Z_28_1_2 * Z_89_1_2
   + 0.0826446280991736 Z_28_1_2 * Z_89_2_2 + 2 Z_28_1_2 * Z_16_1_2
   + 0.1765464227888639 Z_28_1_2 * Z_117_1_2
   + 0.0826446280991736 Z_28_1_2 * Z_32_2_2
   + 0.8569553850900768 Z_28_1_3 * Z_89_1_3
   + 0.0826446280991736 Z_28_1_3 * Z_89_2_3 + 2 Z_28_1_3 * Z_16_1_3
   + 0.1765464227888639 Z_28_1_3 * Z_117_1_3
   + 0.0826446280991736 Z_28_1_3 * Z_32_2_3
   + 0.8856410595334063 Z_89_1_0 * Z_16_1_0
   + 0.8569553850900768 Z_89_1_0 * Z_117_1_0
   + 0.0826446280991736 Z_89_1_0 * Z_32_2_0
   + 0.8856410595334063 Z_89_1_1 * Z_16_1_1
   + 0.8569553850900768 Z_89_1_1 * Z_117_1_1
   + 0.0826446280991736 Z_89_1_1 * Z_32_2_1
   + 0.8856410595334063 Z_89_1_2 * Z_16_1_2
   + 0.8569553850900768 Z_89_1_2 * Z_117_1_2
   + 0.0826446280991736 Z_89_1_2 * Z_32_2_2
   + 0.8856410595334063 Z_89_1_3 * Z_16_1_3
   + 0.8569553850900768 Z_89_1_3 * Z_117_1_3
   + 0.0826446280991736 Z_89_1_3 * Z_32_2_3
   + 0.0826446280991736 Z_89_2_0 * Z_16_1_0
   + 0.3494042237148023 Z_89_2_0 * Z_117_1_0 + 2 Z_89_2_0 * Z_32_2_0
   + 0.0826446280991736 Z_89_2_1 * Z_16_1_1
   + 0.3494042237148023 Z_89_2_1 * Z_117_1_1 + 2 Z_89_2_1 * Z_32_2_1
   + 0.0826446280991736 Z_89_2_2 * Z_16_1_2
   + 0.3494042237148023 Z_89_2_2 * Z_117_1_2 + 2 Z_89_2_2 * Z_32_2_2
   + 0.0826446280991736 Z_89_2_3 * Z_16_1_3
   + 0.3494042237148023 Z_89_2_3 * Z_117_1_3 + 2 Z_89_2_3 * Z_32_2_3
   + 0.4430803076165578 Z_16_1_0 * Z_117_1_0
   + 0.0826446280991736 Z_16_1_0 * Z_32_2_0
   + 0.4430803076165578 Z_16_1_1 * Z_117_1_1
   + 0.0826446280991736 Z_16_1_1 * Z_32_2_1
   + 0.4430803076165578 Z_16_1_2 * Z_117_1_2
   + 0.0826446280991736 Z_16_1_2 * Z_32_2_2
   + 0.4430803076165578 Z_16_1_3 * Z_117_1_3
   + 0.0826446280991736 Z_16_1_3 * Z_32_2_3
   + 0.2928245213283137 Z_117_1_0 * Z_32_1_0
   + 0.3494042237148023 Z_117_1_0 * Z_32_2_0
   + 0.2928245213283137 Z_117_1_1 * Z_32_1_1
   + 0.3494042237148023 Z_117_1_1 * Z_32_2_1
   + 0.2928245213283137 Z_117_1_2 * Z_32_1_2
   + 0.3494042237148023 Z_117_1_2 * Z_32_2_2
   + 0.2928245213283137 Z_117_1_3 * Z_32_1_3
   + 0.3494042237148023 Z_117_1_3 * Z_32_2_3 ] / 2 
Subject To
 constraint1_541: Z_54_1_0 + Z_54_1_1 + Z_54_1_2 + Z_54_1_3 <= 1
 constraint1_511: Z_51_1_0 + Z_51_1_1 + Z_51_1_2 + Z_51_1_3 <= 1
 constraint1_512: Z_51_2_0 + Z_51_2_1 + Z_51_2_2 + Z_51_2_3 <= 1
 constraint1_513: Z_51_3_0 + Z_51_3_1 + Z_51_3_2 + Z_51_3_3 <= 1
 constraint1_1081: Z_108_1_0 + Z_108_1_1 + Z_108_1_2 + Z_108_1_3 <= 1
 constraint1_1131: Z_113_1_0 + Z_113_1_1 + Z_113_1_2 + Z_113_1_3 <= 1
 constraint1_1132: Z_113_2_0 + Z_113_2_1 + Z_113_2_2 + Z_113_2_3 <= 1
 constraint1_1133: Z_113_3_0 + Z_113_3_1 + Z_113_3_2 + Z_113_3_3 <= 1
 constraint1_1134: Z_113_4_0 + Z_113_4_1 + Z_113_4_2 + Z_113_4_3 <= 1
 constraint1_281: Z_28_1_0 + Z_28_1_1 + Z_28_1_2 + Z_28_1_3 <= 1
 constraint1_891: Z_89_1_0 + Z_89_1_1 + Z_89_1_2 + Z_89_1_3 <= 1
 constraint1_892: Z_89_2_0 + Z_89_2_1 + Z_89_2_2 + Z_89_2_3 <= 1
 constraint1_161: Z_16_1_0 + Z_16_1_1 + Z_16_1_2 + Z_16_1_3 <= 1
 constraint1_1171: Z_117_1_0 + Z_117_1_1 + Z_117_1_2 + Z_117_1_3 <= 1
 constraint1_321: Z_32_1_0 + Z_32_1_1 + Z_32_1_2 + Z_32_1_3 <= 1
 constraint1_322: Z_32_2_0 + Z_32_2_1 + Z_32_2_2 + Z_32_2_3 <= 1
 constraint2_630: <= 1
 constraint2_631: <= 1
 constraint2_632: <= 1
 constraint2_633: <= 1
 constraint2_540: Z_54_1_0 <= 1
 constraint2_541: Z_54_1_1 <= 1
 constraint2_542: Z_54_1_2 <= 1
 constraint2_543: Z_54_1_3 <= 1
 constraint2_510: Z_51_1_0 + Z_51_2_0 + Z_51_3_0 <= 1
 constraint2_511: Z_51_1_1 + Z_51_2_1 + Z_51_3_1 <= 1
 constraint2_512: Z_51_1_2 + Z_51_2_2 + Z_51_3_2 <= 1
 constraint2_513: Z_51_1_3 + Z_51_2_3 + Z_51_3_3 <= 1
 constraint2_1080: Z_108_1_0 <= 1
 constraint2_1081: Z_108_1_1 <= 1
 constraint2_1082: Z_108_1_2 <= 1
 constraint2_1083: Z_108_1_3 <= 1
 constraint2_1130: Z_113_1_0 + Z_113_2_0 + Z_113_3_0 + Z_113_4_0 <= 1
 constraint2_1131: Z_113_1_1 + Z_113_2_1 + Z_113_3_1 + Z_113_4_1 <= 1
 constraint2_1132: Z_113_1_2 + Z_113_2_2 + Z_113_3_2 + Z_113_4_2 <= 1
 constraint2_1133: Z_113_1_3 + Z_113_2_3 + Z_113_3_3 + Z_113_4_3 <= 1
 constraint2_480: <= 1
 constraint2_481: <= 1
 constraint2_482: <= 1
 constraint2_483: <= 1
 constraint2_280: Z_28_1_0 <= 1
 constraint2_281: Z_28_1_1 <= 1
 constraint2_282: Z_28_1_2 <= 1
 constraint2_283: Z_28_1_3 <= 1
 constraint2_890: Z_89_1_0 + Z_89_2_0 <= 1
 constraint2_891: Z_89_1_1 + Z_89_2_1 <= 1
 constraint2_892: Z_89_1_2 + Z_89_2_2 <= 1
 constraint2_893: Z_89_1_3 + Z_89_2_3 <= 1
 constraint2_1260: <= 1
 constraint2_1261: <= 1
 constraint2_1262: <= 1
 constraint2_1263: <= 1
 constraint2_340: <= 1
 constraint2_341: <= 1
 constraint2_342: <= 1
 constraint2_343: <= 1
 constraint2_160: Z_16_1_0 <= 1
 constraint2_161: Z_16_1_1 <= 1
 constraint2_162: Z_16_1_2 <= 1
 constraint2_163: Z_16_1_3 <= 1
 constraint2_1170: Z_117_1_0 <= 1
 constraint2_1171: Z_117_1_1 <= 1
 constraint2_1172: Z_117_1_2 <= 1
 constraint2_1173: Z_117_1_3 <= 1
 constraint2_320: Z_32_1_0 + Z_32_2_0 <= 1
 constraint2_321: Z_32_1_1 + Z_32_2_1 <= 1
 constraint2_322: Z_32_1_2 + Z_32_2_2 <= 1
 constraint2_323: Z_32_1_3 + Z_32_2_3 <= 1
Bounds
Binaries
 Z_54_1_0 Z_54_1_1 Z_54_1_2 Z_54_1_3 Z_51_1_0 Z_51_1_1 Z_51_1_2 Z_51_1_3
 Z_51_2_0 Z_51_2_1 Z_51_2_2 Z_51_2_3 Z_51_3_0 Z_51_3_1 Z_51_3_2 Z_51_3_3
 Z_108_1_0 Z_108_1_1 Z_108_1_2 Z_108_1_3 Z_113_1_0 Z_113_1_1 Z_113_1_2
 Z_113_1_3 Z_113_2_0 Z_113_2_1 Z_113_2_2 Z_113_2_3 Z_113_3_0 Z_113_3_1
 Z_113_3_2 Z_113_3_3 Z_113_4_0 Z_113_4_1 Z_113_4_2 Z_113_4_3 Z_28_1_0
 Z_28_1_1 Z_28_1_2 Z_28_1_3 Z_89_1_0 Z_89_1_1 Z_89_1_2 Z_89_1_3 Z_89_2_0
 Z_89_2_1 Z_89_2_2 Z_89_2_3 Z_16_1_0 Z_16_1_1 Z_16_1_2 Z_16_1_3 Z_117_1_0
 Z_117_1_1 Z_117_1_2 Z_117_1_3 Z_32_1_0 Z_32_1_1 Z_32_1_2 Z_32_1_3 Z_32_2_0
 Z_32_2_1 Z_32_2_2 Z_32_2_3
End
